s td 72 9 80
b 1 1 2 11
b 2 9 10 20
b 3 61 71 72
b 4 70 79 80
b 5 2 3 11 12
b 6 8 9 19 20
b 7 3 4 13 24 35 46 57 68 77
b 8 4 13 15 24 35 46 57 68 77
b 9 4 15 24 26 35 46 57 68 77
b 10 4 15 26 35 37 46 57 68 77
b 11 4 15 26 37 46 48 57 68 77
b 12 4 15 26 37 48 57 59 68 77
b 13 4 15 26 37 48 50 59 68 77
b 14 4 15 26 37 39 48 50 59
b 15 4 15 26 28 37 39 48 50
b 16 4 15 17 26 28 37 39 50
b 17 4 8 15 17 26 28 39 50
b 18 4 6 8 15 17 26
b 19 4 5 6 15
b 20 6 7 8 17
b 21 6 15 16 17 26
b 22 8 17 28 30 39 50
b 23 8 17 19 28 30 39
b 24 8 17 18 19 28
b 25 8 19 20 30
b 26 19 28 29 30 39
b 27 30 39 40 50
b 28 17 26 27 28 37
b 29 28 37 38 39 48
b 30 39 48 49 50 59
b 31 50 59 68 77 79
b 32 50 59 68 69 79
b 33 50 59 60 69 79
b 34 68 77 78 79
b 35 48 57 58 59 68
b 36 37 46 47 48 57
b 37 26 35 36 37 46
b 38 15 24 25 26 35
b 39 4 13 14 15 24
b 40 3 13 24 35 46 57 66 68 77
b 41 3 13 24 35 46 55 57 66 77
b 42 3 13 24 35 44 46 55 66 77
b 43 3 13 24 33 35 44 55 66 77
b 44 3 13 22 24 33 44 55 66 77
b 45 3 13 22 31 33 44 55 66 77
b 46 3 11 13 22 31
b 47 3 11 12 13 22
b 48 11 21 22 31
b 49 22 31 33 42 44 55 66 77
b 50 22 31 32 33 42
b 51 31 33 42 44 53 55 66 77
b 52 31 42 44 53 55 64 66 77
b 53 31 42 53 55 64 66 73 77
b 54 31 42 53 62 64 73
b 55 31 42 51 53 62 73
b 56 31 41 42 51
b 57 42 51 52 53 62
b 58 51 62 72 73
b 59 53 62 63 64 73
b 60 55 64 66 73 75 77
b 61 55 64 65 66 75
b 62 64 73 74 75
b 63 66 75 76 77
b 64 44 53 54 55 64
b 65 33 42 43 44 53
b 66 13 22 23 24 33
b 67 24 33 34 35 44
b 68 35 44 45 46 55
b 69 46 55 56 57 66
b 70 57 66 67 68 77
b 71 51 61 62 72
b 72 60 69 70 79
1 5
2 6
3 71
4 72
5 47
6 25
7 8
7 40
8 9
8 39
9 10
9 38
10 11
10 37
11 12
11 36
12 13
12 35
13 14
13 31
14 15
14 30
15 16
15 29
16 17
16 28
17 18
17 22
18 19
18 20
18 21
22 23
22 27
23 24
23 25
23 26
31 32
31 34
32 33
33 72
40 41
40 70
41 42
41 69
42 43
42 68
43 44
43 67
44 45
44 66
45 46
45 49
46 47
46 48
49 50
49 51
51 52
51 65
52 53
52 64
53 54
53 60
54 55
54 59
55 56
55 57
55 58
58 71
60 61
60 62
60 63
